c PicoSAT SAT Solver Version 959
c Copyright (c) 2006 - 2014 Armin Biere JKU Linz
c gcc -Wall -Wextra -DNDEBUG -O3 -fno-strict-aliasing
c
c using 2 as default phase
c
c parsing <stdin>
c parsed header 'p cnf 100 425'
c initialized 100 variables
c found 425 non trivial clauses
c
c random number generator seed 0
c 
c  seconds     variables   original    learned     agility
c         level        used      conflicts    limit          MB
c 
c s   0.0   0.0   100   0.0   425     0     0     0   0.0   0.0 
c 
c initial reduction limit 1000 clauses
c 
c +   0.0  11.0   100  95.0   425   100   100  1100   8.0   0.0 
c R   0.0  11.0   100  95.0   425   101   101  1100   8.0   0.0 
c +   0.0   9.2   100  98.0   425   221   221  1210  15.7   0.0 
c 1   0.0   9.1   100  98.0   425   224   224  1210  16.0   0.0 
c 
c  seconds     variables   original    learned     agility
c         level        used      conflicts    limit          MB
c 
s SATISFIABLE
v -1 2 -3 -4 5 -6 -7 -8 -9 -10 -11 -12 -13 14 -15 -16 17 18 -19 -20 -21 22 -23
v 24 -25 -26 -27 -28 -29 30 -31 -32 33 -34 35 -36 -37 38 -39 40 41 42 43 44 -45
v 46 -47 -48 -49 50 -51 -52 53 -54 -55 -56 57 58 -59 60 61 -62 63 -64 -65 66 67
v 68 -69 70 -71 -72 -73 74 75 -76 77 78 79 -80 -81 82 83 84 85 86 -87 88 89 90
v -91 -92 93 -94 -95 -96 -97 98 99 -100 0
c
c 0 iterations
c 2 restarts
c 0 failed literals
c 224 conflicts
c 278 decisions
c 0 fixed variables
c 1828 learned literals
c 14.9% deleted literals
c 6744 propagations
c 21081 visits
c 98.0% variables used
c 0.0 seconds in library
c 0.0 megaprops/second
c 0.0 megavisits/second
c probing 0.0 seconds 0%
c 1 simplifications
c 0 reductions
c 0.0 MB recycled
c 0.0 MB maximally allocated
c 0.000000 seconds total run time
